NAME : SOLVED
COMMENT : Solved with tsp_solver (Copyright Chase Yalon)
TYPE : TSP
DIMENSION: 30
EDGE_WEIGHT_TYPE : EUC_2D
NODE_COORD_SECTION
1   75   447
2   198   373
3   298   347
4   285   248
5   241   241
6   142   74
7   400   113
8   390   253
9   532   264
10   619   229
11   532   162
12   596   95
13   677   68
14   698   155
15   739   215
16   745   268
17   761   358
18   745   485
19   722   550
20   650   466
21   652   409
22   569   342
23   542   372
24   515   469
25   460   482
26   412   403
27   356   529
28   285   478
29   196   479
30   127   521
